18														
1	0	0	5	2	3	124	133	162						
0	3	3	1	4										
0	1	1	1	4										
0	3	3	1	5										
0	7	7	1	6										
0	1	1	2	7	13									
0	7	7	2	8	9									
0	1	1	1	17										
0	7	7	2	10	11									
0	1	1	1	17										
0	7	7	1	12										
0	1	1	1	17										
0	5	5	2	14	15									
0	18	18	1	16										
0	1	1	1	16										
0	1	1	1	17										
1	2	2	3	18	19	20								
0	1	1	1	21										
0	1	1	1	21										
0	1	1	1	23										
0	3	3	1	22										
0	2	2	1	23										
0	12	12	1	24										
1	1	1	2	25	26									
0	3	3	1	27										
0	1	1	1	28										
0	1	1	1	29										
0	1	1	1	29										
1	1	1	4	30	56	57	58							
1	2	2	3	31	32	33								
0	1	1	1	34										
0	1	1	1	34										
0	1	1	1	36										
0	2	2	1	35										
0	2	2	1	36										
0	12	12	1	37										
0	1	1	2	38	39									
0	2	2	1	40										
0	1	1	1	41										
0	1	1	1	42										
0	1	1	1	42										
0	1	1	2	43	64									
0	3	3	1	44										
1	14	14	2	45	47									
0	3	3	1	46										
0	1	1	1	289										
1	14	14	2	48	50									
0	3	3	1	49										
0	1	1	1	289										
0	14	14	2	51	53									
0	3	3	1	52										
0	1	1	1	289										
0	14	14	1	54										
0	3	3	1	55										
0	1	1	1	289										
0	1	1	1	59										
0	1	1	1	59										
0	1	1	1	63										
0	1	1	1	60										
0	1	1	1	61										
0	2	2	1	62										
0	1	1	1	63										
0	1	1	1	64										
0	2	2	2	65	67									
1	1	1	2	66	68									
1	1	1	1	69										
0	2	2	2	68	70									
0	1	1	2	69	71									
0	1	1	1	72										
1	2	2	2	71	73									
0	1	1	2	72	74									
0	1	1	1	75										
0	2	2	2	74	76									
0	1	1	2	75	77									
0	1	1	1	78										
0	2	2	2	77	79									
0	1	1	2	78	80									
0	1	1	1	81										
0	2	2	2	80	82									
0	1	1	2	81	83									
0	1	1	1	84										
0	2	2	2	83	85									
0	1	1	2	84	86									
0	1	1	1	87										
0	2	2	2	86	88									
0	1	1	2	87	89									
0	1	1	1	90										
0	2	2	2	89	91									
0	1	1	2	90	92									
0	1	1	1	93										
0	2	2	2	92	94									
0	1	1	2	93	95									
0	1	1	1	96										
0	2	2	2	95	97									
0	1	1	2	96	98									
0	1	1	1	99										
0	2	2	2	98	100									
0	1	1	2	99	101									
0	1	1	1	102										
0	2	2	2	101	103									
0	1	1	2	102	104									
0	1	1	1	105										
0	2	2	2	104	106									
0	1	1	2	105	107									
0	1	1	1	108										
0	2	2	2	107	109									
0	1	1	2	108	110									
0	1	1	1	111										
0	2	2	2	110	112									
0	1	1	2	111	113									
0	1	1	1	114										
0	2	2	2	113	115									
0	1	1	2	114	116									
0	1	1	1	117										
0	2	2	2	116	118									
0	1	1	2	117	119									
0	1	1	1	120										
0	2	2	2	119	121									
0	1	1	2	120	122									
0	1	1	1	123										
0	2	2	1	122										
0	1	1	1	123										
0	1	1	1	289										
0	1	1	2	125	129									
0	10	10	2	126	127									
0	3	3	1	128										
0	12	12	1	128										
0	1	1	1	169										
0	10	10	2	130	131									
0	3	3	1	132										
0	12	12	1	132										
0	1	1	1	169										
1	1	1	3	134	140	151								
0	10	10	1	135										
0	5	5	1	136										
0	4	4	1	137										
0	14	14	1	138										
0	28	28	1	139										
0	1	1	1	181										
0	14	14	1	141										
0	6	6	1	142										
0	5	5	1	143										
0	1	1	1	144										
0	18	18	1	145										
1	1	1	3	146	147	148								
0	18	18	1	149										
0	6	6	1	149										
0	18	18	1	150										
0	1	1	1	150										
0	1	1	1	181										
0	14	14	1	152										
0	6	6	1	153										
0	5	5	1	154										
0	1	1	1	155										
0	18	18	1	156										
1	1	1	3	157	158	159								
0	18	18	1	160										
0	6	6	1	160										
0	18	18	1	161										
0	1	1	1	161										
0	1	1	1	179										
0	1	1	1	163										
0	12	12	1	164										
0	12	12	1	165										
0	5	5	1	166										
0	2	2	1	167										
0	12	12	1	168										
0	1	1	1	188										
1	1	1	2	170	174									
0	18	18	1	171										
0	10	10	1	172										
0	7	7	1	173										
0	10	10	1	178										
0	18	18	1	175										
0	10	10	1	176										
0	7	7	1	177										
0	10	10	1	178										
0	1	1	1	194										
1	1	1	2	180	184									
0	18	18	1	181										
0	10	10	1	182										
0	7	7	1	183										
0	10	10	1	187										
0	25	25	1	185										
0	10	10	1	186										
0	10	10	1	187										
0	1	1	1	204										
0	1	1	1	189										
0	18	18	1	190										
0	12	12	1	191										
0	12	12	1	192										
0	12	12	1	193										
0	2	2	1	214										
1	1	1	2	195	199									
0	7	7	1	196										
0	100	100	1	197										
0	7	7	1	198										
0	1	1	1	203										
0	7	7	1	200										
0	100	100	1	201										
0	7	7	1	202										
0	1	1	1	203										
1	1	1	3	221	235	267								
1	1	1	2	205	209									
0	7	7	1	206										
0	100	100	1	207										
0	7	7	1	208										
0	1	1	1	213										
0	7	7	1	210										
0	100	100	1	211										
0	7	7	1	212										
0	1	1	1	213										
1	1	1	4	241	255	261	276							
0	2	2	1	215										
1	14	14	3	216	217	218								
0	21	21	1	219										
0	14	14	1	220										
0	5	5	1	220										
0	14	14	1	220										
1	2	2	2	285	286									
0	2	2	2	222	228									
1	25	25	4	223	224	225	226							
0	30	30	1	227										
0	25	25	1	234										
0	5	5	1	234										
0	25	25	1	234										
0	25	25	1	234										
1	25	25	4	229	230	231	232							
0	30	30	1	233										
0	25	25	1	234										
0	5	5	1	234										
0	25	25	1	234										
0	25	25	1	234										
1	2	2	2	285	286									
1	2	2	4	236	237	238	239							
0	14	14	1	240										
0	6	6	1	240										
0	14	14	1	240										
0	6	6	1	240										
1	2	2	2	285	286									
0	2	2	2	242	248									
1	24	24	4	243	244	245	246							
0	30	30	1	247										
0	24	24	1	254										
0	5	5	1	254										
0	24	24	1	254										
0	24	24	1	254										
1	24	24	4	249	250	251	252							
0	30	30	1	253										
0	24	24	1	254										
0	5	5	1	254										
0	24	24	1	254										
0	24	24	1	254										
0	2	2	2	285	286									
1	1	1	4	256	257	258	259							
0	12	12	1	260										
0	5	5	1	260										
0	14	14	1	260										
0	5	5	1	260										
0	1	1	2	285	286									
0	1	1	2	262	263									
0	5	5	1	264										
0	21	21	1	265										
0	5	5	1	266										
0	14	14	1	266										
0	1	1	2	285	286									
1	1	1	4	268	269	270	271							
0	10	10	1	272										
0	10	10	1	273										
0	10	10	1	274										
0	4	4	1	275										
0	10	10	1	275										
0	10	10	1	275										
0	10	10	1	275										
1	1	1	2	285	286									
1	1	1	4	277	278	279	280							
0	10	10	1	281										
0	10	10	1	282										
0	10	10	1	283										
0	4	4	1	284										
0	10	10	1	284										
0	10	10	1	284										
0	10	10	1	284										
1	1	1	2	285	286									
0	4	4	1	287										
0	4	4	1	287										
0	4	4	1	288										
0	4	4	1	289										
1	0	0	0													
